
Gurobi 10.0.1 (mac64[arm]) logging started Mon Sep 18 23:06:11 2023

Set parameter LogFile to value "scenario_returns/returns_alpha/results/M_j_a_50/mip_log.txt"
Gurobi Optimizer version 10.0.1 build v10.0.1rc0 (mac64[arm])

CPU model: Apple M1
Thread count: 8 physical cores, 8 logical processors, using up to 8 threads

Optimize a model with 8470 rows, 31465 columns and 123860 nonzeros
Model fingerprint: 0x407b8144
Model has 44890 general constraints
Variable types: 5 continuous, 31460 integer (2040 binary)
Coefficient statistics:
  Matrix range     [6e-02, 3e+05]
  Objective range  [9e-02, 2e+05]
  Bounds range     [1e+00, 2e+07]
  RHS range        [2e+03, 2e+04]
  GenCon rhs range [1e+00, 1e+00]
  GenCon coe range [1e+00, 1e+00]

MIP start from previous solve did not produce a new incumbent solution
Processed MIP start in 4.06 seconds (4.69 work units)

Presolve removed 6820 rows and 25545 columns
Presolve time: 0.99s
Presolved: 1650 rows, 5920 columns, 23713 nonzeros
Presolved model has 4 SOS constraint(s)
Variable types: 0 continuous, 5920 integer (34 binary)

Root simplex log...

Iteration    Objective       Primal Inf.    Dual Inf.      Time
       0    2.4356846e+06   3.500395e+05   0.000000e+00      5s
    5175    4.0546105e+07   0.000000e+00   0.000000e+00      5s

Root relaxation: objective 4.054610e+07, 5175 iterations, 0.06 seconds (0.07 work units)

    Nodes    |    Current Node    |     Objective Bounds      |     Work
 Expl Unexpl |  Obj  Depth IntInf | Incumbent    BestBd   Gap | It/Node Time

     0     0 4.0546e+07    0  716          - 4.0546e+07      -     -    5s
     0     0 4.1479e+07    0  636          - 4.1479e+07      -     -    5s
H    0     0                    4.687776e+07 4.1479e+07  11.5%     -    5s
H    0     0                    4.450747e+07 4.1479e+07  6.80%     -    5s
     0     0 4.1594e+07    0  640 4.4507e+07 4.1594e+07  6.55%     -    5s
     0     0 4.1601e+07    0  647 4.4507e+07 4.1601e+07  6.53%     -    5s
     0     0 4.1661e+07    0  826 4.4507e+07 4.1661e+07  6.40%     -    5s
     0     0 4.1691e+07    0  806 4.4507e+07 4.1691e+07  6.33%     -    5s
     0     0 4.1691e+07    0  817 4.4507e+07 4.1691e+07  6.33%     -    5s
     0     0 4.1697e+07    0  947 4.4507e+07 4.1697e+07  6.31%     -    5s
     0     0 4.1700e+07    0  827 4.4507e+07 4.1700e+07  6.31%     -    5s
     0     0 4.1700e+07    0  838 4.4507e+07 4.1700e+07  6.31%     -    5s
     0     0 4.1733e+07    0  901 4.4507e+07 4.1733e+07  6.23%     -    5s
     0     0 4.1738e+07    0  894 4.4507e+07 4.1738e+07  6.22%     -    5s
H    0     0                    4.340992e+07 4.1738e+07  3.85%     -    6s
     0     2 4.1738e+07    0  891 4.3410e+07 4.1738e+07  3.85%     -    6s
H   73    51                    4.340938e+07 4.1934e+07  3.40%   404    7s
*  534   277              49    4.331512e+07 4.1935e+07  3.19%   195    7s
*  602   313              57    4.331512e+07 4.2009e+07  3.01%   185    7s
H 1062   517                    4.318678e+07 4.2396e+07  1.83%   120    7s
H 1083   517                    4.305948e+07 4.2396e+07  1.54%   118    7s
H 1599   379                    4.304913e+07 4.2674e+07  0.87%   114    9s
  1747   358 4.3002e+07   23  282 4.3049e+07 4.2674e+07  0.87%   112   10s
H 2358   281                    4.295211e+07 4.2674e+07  0.65%  92.5   10s
* 3527   616             126    4.295206e+07 4.2674e+07  0.65%  72.1   11s
* 4634   611              42    4.292638e+07 4.2790e+07  0.32%  60.8   11s

Cutting planes:
  Implied bound: 229
  MIR: 30
  Inf proof: 2
  Relax-and-lift: 34

Explored 5567 nodes (303479 simplex iterations) in 12.12 seconds (15.33 work units)
Thread count was 8 (of 8 available processors)

Solution count 10: 4.29264e+07 4.29521e+07 4.29521e+07 ... 4.34099e+07

Optimal solution found (tolerance 1.00e-04)
Best objective 4.292637575400e+07, best bound 4.292637367712e+07, gap 0.0000%
